
Route #1: 2 43 29 40 23 22 41 
Route #2: 31 15 33 24 21 32 42 37 11 
Route #3: 8 36 14 38 9 39 26 25 
Route #4: 7 28 27 19 34 17 
Route #5: 4 16 1 35 18 30 
Route #6: 3 6 12 5 10 20 13 
cost 1309.73
total time is 4.2